85 21
11 19
3 16
65 92
35 71
36 77
63 28
55 94
48 29
51 3
20 26
3 91
82 1
48 49
36 27
26 46
38 18
94 88
59 24
34 91
11 53
95 79
58 69
0 16
66 82
28 1
18 87
67 65
24 79
89 56
9 98
77 67
43 59
31 15
11 21
93 89
13 21
86 71
43 79
34 65
12 65
5 5
25 21
50 56
78 67
61 95
2 34
16 44
12 48
72 15
61 27
4 56
97 69
81 0
57 81
77 74
17 30
72 88
23 22
7 87
98 69
4 56
6 50
13 73
4 75
23 6
92 24
71 35
81 72
54 77
82 9
41 18
96 34
92 91
42 13
13 82
47 31
46 43
38 71
73 12
30 31
15 17
40 66
26 85
74 88
78 63
34 98
42 37
7 15
38 85
93 15
11 78
96 8
64 23
96 93
13 69
69 56
1 10
80 16
41 51
